# Objective value = 0.065625
A_0_0 -0.0703125
A_1_0 3.0468750000000000e-01
A_1_1 3.0468750000000000e-01
A_2_0 0
A_2_1 0.75
A_2_2 0
A_3_0 0.625
A_3_1 -0.375
A_3_2 -0.375
A_3_3 0.625
z1_0 0.0703125
z1_1 0
z1_2 3.5156250000000000e-02
z1_3 0
z1_4 0.140625
z2_0 0.140625
z2_1 0
z2_2 5.8593750000000000e-02
z2_3 0
z2_4 2.1093750000000000e-01
z3_0 0.0703125
z3_1 0
z3_2 3.5156250000000000e-02
z3_3 0
z3_4 0.140625
z4_0 0.140625
z4_1 0
z4_2 5.8593750000000000e-02
z4_3 0
z4_4 2.1093750000000000e-01
